p cnf 126 439
-1 2 -3 0
1 -2 -3 0
-1 -2 3 0
1 2 3 0
-5 3 0
-5 4 0
-3 -4 5 0
8 6 0
8 -7 0
-6 7 -8 0
-10 -8 0
-10 -9 0
8 9 10 0
-11 -2 0
-11 -10 0
2 10 11 0
13 11 0
13 -12 0
-11 12 -13 0
-15 -13 0
-15 14 0
13 -14 15 0
-16 -15 0
-16 -13 0
15 13 16 0
-14 4 -18 0
14 -4 -18 0
-14 -4 18 0
14 4 18 0
-19 -17 0
-19 -18 0
17 18 19 0
-20 -19 0
-20 17 0
19 -17 20 0
21 16 0
21 20 0
-16 -20 -21 0
22 3 0
22 -19 0
-3 19 -22 0
-21 22 -23 0
21 -22 -23 0
-21 -22 23 0
21 22 23 0
11 -8 -24 0
-11 8 -24 0
11 8 24 0
-11 -8 24 0
25 -24 0
25 -17 0
24 17 -25 0
-26 -25 0
-26 1 0
25 -1 26 0
27 26 0
27 -9 0
-26 9 -27 0
-22 27 -28 0
22 -27 -28 0
-22 -27 28 0
22 27 28 0
-29 -6 0
-29 25 0
6 -25 29 0
-28 29 -30 0
28 -29 -30 0
-28 -29 30 0
28 29 30 0
31 30 0
31 1 0
-30 -1 -31 0
32 17 0
32 31 0
-17 -31 -32 0
-33 -23 0
-33 -32 0
23 32 33 0
34 -5 0
34 -33 0
5 33 -34 0
-35 4 -36 0
35 -4 -36 0
-35 -4 36 0
35 4 36 0
38 -36 0
38 37 0
36 -37 -38 0
2 -39 -40 0
-2 39 -40 0
2 39 40 0
-2 -39 40 0
41 38 0
41 -40 0
-38 40 -41 0
-42 8 0
-42 41 0
-8 -41 42 0
43 42 0
43 11 0
-42 -11 -43 0
44 17 0
44 7 0
-17 -7 -44 0
45 18 0
45 -14 0
-18 14 -45 0
46 44 0
46 45 0
-44 -45 -46 0
-47 -43 0
-47 46 0
43 -46 47 0
-48 34 0
-48 -47 0
-34 47 48 0
1 9 -49 0
-1 -9 -49 0
1 -9 49 0
-1 9 49 0
-51 -50 0
-51 -17 0
50 17 51 0
52 -4 0
52 14 0
4 -14 -52 0
51 -52 -53 0
-51 52 -53 0
51 52 53 0
-51 -52 53 0
-54 -49 0
-54 -53 0
49 53 54 0
-55 40 0
-55 -28 0
-40 28 55 0
6 -55 -56 0
-6 55 -56 0
6 55 56 0
-6 -55 56 0
57 19 0
57 16 0
-19 -16 -57 0
-57 -58 -59 0
57 58 -59 0
-57 58 59 0
57 -58 59 0
37 60 0
-37 60 0
61 15 0
61 19 0
-15 -19 -61 0
62 60 0
62 -61 0
-60 61 -62 0
63 62 0
63 -24 0
-62 24 -63 0
64 -59 0
64 -63 0
59 63 -64 0
56 64 -65 0
-56 -64 -65 0
56 -64 65 0
-56 64 65 0
54 65 -66 0
-54 -65 -66 0
54 -65 66 0
-54 65 66 0
67 -18 0
67 -13 0
18 13 -67 0
-67 28 -68 0
67 -28 -68 0
-67 -28 68 0
67 28 68 0
-69 -16 0
-69 17 0
16 -17 69 0
41 69 -70 0
-41 -69 -70 0
41 -69 70 0
-41 69 70 0
71 68 0
71 -70 0
-68 70 -71 0
-12 27 -72 0
12 -27 -72 0
-12 -27 72 0
12 27 72 0
73 -71 0
73 -72 0
71 72 -73 0
74 19 0
74 -22 0
-19 22 -74 0
75 -4 0
75 -52 0
4 52 -75 0
76 -74 0
76 -75 0
74 75 -76 0
77 -73 0
77 76 0
73 -76 -77 0
-78 -66 0
-78 -77 0
66 77 78 0
-79 10 0
-79 -21 0
-10 21 79 0
80 57 0
80 -12 0
-57 12 -80 0
81 79 0
81 -80 0
-79 80 -81 0
-82 18 0
-82 -37 0
-18 37 82 0
-83 -81 0
-83 82 0
81 -82 83 0
-84 -9 0
-84 -7 0
9 7 84 0
85 84 0
85 -62 0
-84 62 -85 0
35 -18 -86 0
-35 18 -86 0
35 18 86 0
-35 -18 86 0
86 12 -87 0
-86 -12 -87 0
86 -12 87 0
-86 12 87 0
-88 24 0
-88 -87 0
-24 87 88 0
-89 -85 0
-89 -88 0
85 88 89 0
-90 45 0
-90 7 0
-45 -7 90 0
-91 -29 0
-91 17 0
29 -17 91 0
92 6 0
92 -91 0
-6 91 -92 0
93 -92 0
93 7 0
92 -7 -93 0
94 -90 0
94 -93 0
90 93 -94 0
-89 -94 -95 0
89 94 -95 0
-89 94 95 0
89 -94 95 0
-96 -83 0
-96 -95 0
83 95 96 0
45 38 -97 0
-45 -38 -97 0
45 -38 97 0
-45 38 97 0
98 97 0
98 -55 0
-97 55 -98 0
99 -57 0
99 -12 0
57 12 -99 0
-100 -99 0
-100 -87 0
99 87 100 0
-101 98 0
-101 -100 0
-98 100 101 0
-102 96 0
-102 101 0
-96 -101 102 0
103 78 0
103 102 0
-78 -102 -103 0
104 -44 0
104 -39 0
44 39 -104 0
-20 -104 -105 0
20 104 -105 0
-20 104 105 0
20 -104 105 0
106 -31 0
106 -39 0
31 39 -106 0
107 -105 0
107 106 0
105 -106 -107 0
108 -10 0
108 17 0
10 -17 -108 0
109 -108 0
109 -93 0
108 93 -109 0
-3 -55 -110 0
3 55 -110 0
-3 55 110 0
3 -55 110 0
-111 25 0
-111 6 0
-25 -6 111 0
111 84 -112 0
-111 -84 -112 0
111 -84 112 0
-111 84 112 0
-113 110 0
-113 112 0
-110 -112 113 0
-114 -4 0
-114 -39 0
4 39 114 0
115 -42 0
115 35 0
42 -35 -115 0
-116 -114 0
-116 -115 0
114 115 116 0
15 -21 -117 0
-15 21 -117 0
15 21 117 0
-15 -21 117 0
-118 116 0
-118 -117 0
-116 117 118 0
113 -118 -119 0
-113 118 -119 0
113 118 119 0
-113 -118 119 0
109 119 -120 0
-109 -119 -120 0
109 -119 120 0
-109 119 120 0
-121 -45 0
-121 -104 0
45 104 121 0
-1 -121 -122 0
1 121 -122 0
-1 121 122 0
1 -121 122 0
120 122 -123 0
-120 -122 -123 0
120 -122 123 0
-120 122 123 0
124 107 0
124 123 0
-107 -123 -124 0
-125 103 0
-125 -124 0
-103 124 125 0
48 -125 -126 0
-48 125 -126 0
48 125 126 0
-48 -125 126 0
83 100 -40 -1 -113 25 0
109 -104 -84 14 0
-72 -63 1 97 0
-116 -76 39 70 -74 92 0
30 -54 0
-82 30 -73 0
-23 -113 74 102 87 66 0
-6 11 4 62 55 0
85 -89 3 113 0
16 125 0
5 88 23 -82 0
15 -9 125 -53 0
35 69 125 103 0
10 -57 104 -5 -94 0
113 -44 -103 15 97 0
56 -22 57 -16 115 0
120 47 -93 10 0
-33 44 5 24 0
-82 96 -42 104 0
-27 46 59 0
20 107 87 112 0
81 124 -21 0
63 26 41 -44 -14 23 0
-29 111 0
-61 -38 0
-79 123 0
-74 -121 44 -23 0
102 -56 0
-107 110 67 34 -38 0
117 70 0
-107 116 15 114 -96 -28 0
116 40 -4 104 -115 -110 0
117 22 59 120 93 21 0
-81 -43 -67 96 17 0
71 96 102 79 0
-39 70 0
79 -33 28 0
-17 1 73 0
34 -52 -1 98 0
-82 -10 -12 0
-25 50 -2 -11 0
-38 41 117 -108 0
-49 60 -22 113 -37 0
-14 21 -117 41 -55 0
114 123 -77 46 0
-12 42 0
55 47 -96 -117 103 -88 0
75 -2 71 -19 0
-82 -98 -73 -94 43 -2 0
-100 -79 0
-117 8 -6 -102 101 37 0
120 72 -75 0
101 -111 9 84 -93 0
-124 76 34 -114 0
7 26 -79 -28 -19 -76 0
11 -54 -113 17 -38 108 0
-82 -118 0
113 4 28 5 -93 0
31 46 -2 -110 0
-29 -85 118 0
-40 41 -91 0
75 -36 58 0
-85 -88 0
-30 -38 103 -7 -83 -6 0
29 -102 0
70 -46 33 -22 -61 109 0
-65 69 -107 -41 71 0
16 -87 -35 83 0
-73 -106 -61 88 -7 0
125 -97 -8 0
-123 53 -26 -107 -119 0
46 -83 107 0
61 19 108 3 0
126 0
